(set-logic ALL)
(set-option :produce-models true)
(declare-sort BoundSet 0)
(declare-sort UnboundSet 0)
(declare-fun IsAttending (BoundSet BoundSet) Bool)
(declare-fun IsSitting (BoundSet) Bool)
(declare-fun IsInBuilding (BoundSet) Bool)
(declare-fun ( (Bool) Bool)
(declare-fun HasPhotographyOnWalls (BoundSet) Bool)
(assert (not (=> (exists ((a BoundSet)) (exists ((b BoundSet)) (IsAttending a b))) (exists ((e BoundSet)) (exists ((c BoundSet)) (and (exists ((d BoundSet)) (( (and (IsSitting c) (IsInBuilding d)))) (HasPhotographyOnWalls e)))))))
(check-sat)
(get-model)